p tw 121 18151 2 
1 3 
1 4 
1 5 
1 6 
1 7 
1 8 
1 9 
1 10 
1 11 
1 12 
1 19 
1 23 
1 24 
1 34 
1 40 
1 45 
1 55 
1 56 
1 59 
1 67 
1 75 
1 78 
1 82 
1 89 
1 91 
1 100 
1 105 
1 111 
1 120 
2 3 
2 4 
2 5 
2 6 
2 7 
2 8 
2 9 
2 10 
2 11 
2 13 
2 14 
2 24 
2 32 
2 35 
2 38 
2 46 
2 50 
2 57 
2 62 
2 68 
2 77 
2 79 
2 85 
2 90 
2 97 
2 101 
2 103 
2 111 
2 112 
3 4 
3 5 
3 6 
3 7 
3 8 
3 9 
3 10 
3 11 
3 14 
3 18 
3 25 
3 33 
3 36 
3 41 
3 46 
3 47 
3 58 
3 64 
3 69 
3 72 
3 80 
3 81 
3 91 
3 98 
3 100 
3 102 
3 113 
3 115 
4 5 
4 6 
4 7 
4 8 
4 9 
4 10 
4 11 
4 15 
4 16 
4 26 
4 30 
4 37 
4 42 
4 48 
4 54 
4 56 
4 59 
4 68 
4 70 
4 81 
4 84 
4 92 
4 94 
4 102 
4 103 
4 114 
4 121 
5 6 
5 7 
5 8 
5 9 
5 10 
5 11 
5 12 
5 16 
5 27 
5 29 
5 38 
5 43 
5 47 
5 49 
5 60 
5 66 
5 71 
5 74 
5 82 
5 83 
5 92 
5 93 
5 104 
5 108 
5 112 
5 115 
6 7 
6 8 
6 9 
6 10 
6 11 
6 13 
6 17 
6 23 
6 28 
6 39 
6 44 
6 50 
6 53 
6 60 
6 61 
6 69 
6 72 
6 83 
6 87 
6 94 
6 95 
6 105 
6 107 
6 114 
6 116 
7 8 
7 9 
7 10 
7 11 
7 18 
7 20 
7 25 
7 29 
7 39 
7 40 
7 49 
7 51 
7 62 
7 65 
7 70 
7 73 
7 79 
7 84 
7 89 
7 95 
7 106 
7 110 
7 117 
7 118 
8 9 
8 10 
8 11 
8 19 
8 21 
8 30 
8 31 
8 37 
8 41 
8 51 
8 52 
8 61 
8 63 
8 67 
8 74 
8 85 
8 88 
8 93 
8 96 
8 101 
8 107 
8 113 
8 118 
9 10 
9 11 
9 17 
9 20 
9 26 
9 31 
9 34 
9 42 
9 52 
9 53 
9 57 
9 64 
9 71 
9 75 
9 80 
9 86 
9 97 
9 99 
9 108 
9 109 
9 117 
9 119 
10 11 
10 21 
10 22 
10 28 
10 32 
10 36 
10 43 
10 48 
10 54 
10 63 
10 65 
10 73 
10 76 
10 78 
10 87 
10 90 
10 98 
10 104 
10 109 
10 119 
10 120 
11 15 
11 22 
11 27 
11 33 
11 35 
11 44 
11 45 
11 55 
11 58 
11 66 
11 76 
11 77 
11 86 
11 88 
11 96 
11 99 
11 106 
11 110 
11 116 
11 121 
12 13 
12 14 
12 15 
12 16 
12 17 
12 18 
12 19 
12 20 
12 21 
12 22 
12 23 
12 29 
12 34 
12 43 
12 45 
12 47 
12 56 
12 66 
12 67 
12 74 
12 78 
12 83 
12 89 
12 92 
12 100 
12 108 
12 111 
12 112 
13 14 
13 15 
13 16 
13 17 
13 18 
13 19 
13 20 
13 21 
13 22 
13 23 
13 24 
13 35 
13 44 
13 46 
13 53 
13 57 
13 60 
13 68 
13 69 
13 79 
13 87 
13 90 
13 95 
13 101 
13 107 
13 112 
13 114 
14 15 
14 16 
14 17 
14 18 
14 19 
14 20 
14 21 
14 22 
14 25 
14 32 
14 36 
14 38 
14 47 
14 50 
14 58 
14 62 
14 69 
14 77 
14 80 
14 85 
14 91 
14 97 
14 102 
14 103 
14 111 
14 113 
15 16 
15 17 
15 18 
15 19 
15 20 
15 21 
15 22 
15 26 
15 27 
15 35 
15 37 
15 45 
15 48 
15 58 
15 59 
15 70 
15 76 
15 81 
15 86 
15 92 
15 96 
15 103 
15 106 
15 114 
15 116 
16 17 
16 18 
16 19 
16 20 
16 21 
16 22 
16 27 
16 30 
16 38 
16 42 
16 49 
16 54 
16 56 
16 60 
16 68 
16 71 
16 82 
16 84 
16 93 
16 94 
16 102 
16 104 
16 115 
16 121 
17 18 
17 19 
17 20 
17 21 
17 22 
17 26 
17 28 
17 34 
17 39 
17 50 
17 52 
17 57 
17 61 
17 71 
17 72 
17 80 
17 83 
17 94 
17 99 
17 105 
17 109 
17 116 
17 117 
18 19 
18 20 
18 21 
18 22 
18 29 
18 33 
18 40 
18 41 
18 46 
18 51 
18 62 
18 64 
18 72 
18 73 
18 81 
18 84 
18 95 
18 98 
18 100 
18 106 
18 115 
18 117 
19 20 
19 21 
19 22 
19 24 
19 30 
19 40 
19 41 
19 52 
19 55 
19 59 
19 63 
19 74 
19 75 
19 82 
19 85 
19 91 
19 96 
19 105 
19 107 
19 118 
19 120 
20 21 
20 22 
20 25 
20 31 
20 39 
20 42 
20 49 
20 53 
20 64 
20 65 
20 70 
20 75 
20 79 
20 86 
20 89 
20 97 
20 108 
20 110 
20 118 
20 119 
21 22 
21 31 
21 32 
21 37 
21 43 
21 51 
21 54 
21 61 
21 65 
21 67 
21 76 
21 87 
21 88 
21 93 
21 98 
21 101 
21 109 
21 113 
21 120 
22 28 
22 33 
22 36 
22 44 
22 48 
22 55 
22 63 
22 66 
22 73 
22 77 
22 78 
22 88 
22 90 
22 99 
22 104 
22 110 
22 119 
22 121 
23 24 
23 25 
23 26 
23 27 
23 28 
23 29 
23 30 
23 31 
23 32 
23 33 
23 34 
23 44 
23 45 
23 53 
23 56 
23 60 
23 67 
23 69 
23 78 
23 87 
23 89 
23 95 
23 100 
23 107 
23 111 
23 114 
24 25 
24 26 
24 27 
24 28 
24 29 
24 30 
24 31 
24 32 
24 33 
24 35 
24 40 
24 46 
24 55 
24 57 
24 59 
24 68 
24 75 
24 79 
24 82 
24 90 
24 91 
24 101 
24 105 
24 112 
24 120 
25 26 
25 27 
25 28 
25 29 
25 30 
25 31 
25 32 
25 33 
25 36 
25 39 
25 47 
25 49 
25 58 
25 65 
25 69 
25 70 
25 79 
25 80 
25 89 
25 91 
25 102 
25 110 
25 113 
25 118 
26 27 
26 28 
26 29 
26 30 
26 31 
26 32 
26 33 
26 34 
26 37 
26 48 
26 52 
26 57 
26 59 
26 70 
26 71 
26 80 
26 81 
26 92 
26 99 
26 103 
26 109 
26 114 
26 117 
27 28 
27 29 
27 30 
27 31 
27 32 
27 33 
27 35 
27 38 
27 45 
27 49 
27 58 
27 60 
27 71 
27 76 
27 82 
27 86 
27 93 
27 96 
27 104 
27 106 
27 115 
27 116 
28 29 
28 30 
28 31 
28 32 
28 33 
28 36 
28 39 
28 48 
28 50 
28 61 
28 63 
28 72 
28 73 
28 78 
28 83 
28 90 
28 94 
28 104 
28 105 
28 116 
28 119 
29 30 
29 31 
29 32 
29 33 
29 40 
29 43 
29 47 
29 51 
29 62 
29 66 
29 73 
29 74 
29 83 
29 84 
29 92 
29 95 
29 106 
29 108 
29 112 
29 117 
30 31 
30 32 
30 33 
30 41 
30 42 
30 52 
30 54 
30 56 
30 63 
30 68 
30 74 
30 84 
30 85 
30 94 
30 96 
30 102 
30 107 
30 118 
30 121 
31 32 
31 33 
31 37 
31 42 
31 51 
31 53 
31 61 
31 64 
31 67 
31 75 
31 86 
31 88 
31 93 
31 97 
31 101 
31 108 
31 113 
31 119 
32 33 
32 38 
32 43 
32 50 
32 54 
32 62 
32 65 
32 76 
32 77 
32 85 
32 87 
32 97 
32 98 
32 103 
32 109 
32 111 
32 120 
33 41 
33 44 
33 46 
33 55 
33 64 
33 66 
33 72 
33 77 
33 81 
33 88 
33 98 
33 99 
33 100 
33 110 
33 115 
33 121 
34 35 
34 36 
34 37 
34 38 
34 39 
34 40 
34 41 
34 42 
34 43 
34 44 
34 45 
34 52 
34 56 
34 57 
34 67 
34 71 
34 78 
34 80 
34 89 
34 99 
34 100 
34 109 
34 111 
34 117 
35 36 
35 37 
35 38 
35 39 
35 40 
35 41 
35 42 
35 43 
35 44 
35 45 
35 46 
35 57 
35 58 
35 68 
35 76 
35 79 
35 86 
35 90 
35 96 
35 101 
35 106 
35 112 
35 116 
36 37 
36 38 
36 39 
36 40 
36 41 
36 42 
36 43 
36 44 
36 47 
36 48 
36 58 
36 63 
36 69 
36 73 
36 78 
36 80 
36 90 
36 91 
36 102 
36 104 
36 113 
36 119 
37 38 
37 39 
37 40 
37 41 
37 42 
37 43 
37 44 
37 48 
37 51 
37 59 
37 61 
37 67 
37 70 
37 81 
37 88 
37 92 
37 93 
37 101 
37 103 
37 113 
37 114 
38 39 
38 40 
38 41 
38 42 
38 43 
38 44 
38 49 
38 50 
38 60 
38 62 
38 71 
38 77 
38 82 
38 85 
38 93 
38 97 
38 103 
38 104 
38 111 
38 115 
39 40 
39 41 
39 42 
39 43 
39 44 
39 49 
39 50 
39 61 
39 65 
39 70 
39 72 
39 79 
39 83 
39 89 
39 94 
39 105 
39 110 
39 116 
39 118 
40 41 
40 42 
40 43 
40 44 
40 51 
40 55 
40 59 
40 62 
40 73 
40 75 
40 82 
40 84 
40 91 
40 95 
40 105 
40 106 
40 117 
40 120 
41 42 
41 43 
41 44 
41 46 
41 52 
41 63 
41 64 
41 72 
41 74 
41 81 
41 85 
41 96 
41 98 
41 100 
41 107 
41 115 
41 118 
42 43 
42 44 
42 53 
42 54 
42 56 
42 64 
42 68 
42 75 
42 84 
42 86 
42 94 
42 97 
42 102 
42 108 
42 119 
42 121 
43 44 
43 47 
43 54 
43 65 
43 66 
43 74 
43 76 
43 83 
43 87 
43 92 
43 98 
43 108 
43 109 
43 112 
43 120 
44 53 
44 55 
44 60 
44 66 
44 69 
44 77 
44 87 
44 88 
44 95 
44 99 
44 107 
44 110 
44 114 
44 121 
45 46 
45 47 
45 48 
45 49 
45 50 
45 51 
45 52 
45 53 
45 54 
45 55 
45 56 
45 58 
45 67 
45 76 
45 78 
45 86 
45 89 
45 96 
45 100 
45 106 
45 111 
45 116 
46 47 
46 48 
46 49 
46 50 
46 51 
46 52 
46 53 
46 54 
46 55 
46 57 
46 64 
46 68 
46 72 
46 79 
46 81 
46 90 
46 98 
46 100 
46 101 
46 112 
46 115 
47 48 
47 49 
47 50 
47 51 
47 52 
47 53 
47 54 
47 55 
47 58 
47 66 
47 69 
47 74 
47 80 
47 83 
47 91 
47 92 
47 102 
47 108 
47 112 
47 113 
48 49 
48 50 
48 51 
48 52 
48 53 
48 54 
48 55 
48 59 
48 63 
48 70 
48 73 
48 78 
48 81 
48 90 
48 92 
48 103 
48 104 
48 114 
48 119 
49 50 
49 51 
49 52 
49 53 
49 54 
49 55 
49 60 
49 65 
49 70 
49 71 
49 79 
49 82 
49 89 
49 93 
49 104 
49 110 
49 115 
49 118 
50 51 
50 52 
50 53 
50 54 
50 55 
50 61 
50 62 
50 72 
50 77 
50 83 
50 85 
50 94 
50 97 
50 103 
50 105 
50 111 
50 116 
51 52 
51 53 
51 54 
51 55 
51 61 
51 62 
51 67 
51 73 
51 84 
51 88 
51 93 
51 95 
51 101 
51 106 
51 113 
51 117 
52 53 
52 54 
52 55 
52 57 
52 63 
52 71 
52 74 
52 80 
52 85 
52 96 
52 99 
52 107 
52 109 
52 117 
52 118 
53 54 
53 55 
53 60 
53 64 
53 69 
53 75 
53 86 
53 87 
53 95 
53 97 
53 107 
53 108 
53 114 
53 119 
54 55 
54 56 
54 65 
54 68 
54 76 
54 84 
54 87 
54 94 
54 98 
54 102 
54 109 
54 120 
54 121 
55 59 
55 66 
55 75 
55 77 
55 82 
55 88 
55 91 
55 99 
55 105 
55 110 
55 120 
55 121 
56 57 
56 58 
56 59 
56 60 
56 61 
56 62 
56 63 
56 64 
56 65 
56 66 
56 67 
56 68 
56 78 
56 84 
56 89 
56 94 
56 100 
56 102 
56 111 
56 121 
57 58 
57 59 
57 60 
57 61 
57 62 
57 63 
57 64 
57 65 
57 66 
57 68 
57 71 
57 79 
57 80 
57 90 
57 99 
57 101 
57 109 
57 112 
57 117 
58 59 
58 60 
58 61 
58 62 
58 63 
58 64 
58 65 
58 66 
58 69 
58 76 
58 80 
58 86 
58 91 
58 96 
58 102 
58 106 
58 113 
58 116 
59 60 
59 61 
59 62 
59 63 
59 64 
59 65 
59 66 
59 70 
59 75 
59 81 
59 82 
59 91 
59 92 
59 103 
59 105 
59 114 
59 120 
60 61 
60 62 
60 63 
60 64 
60 65 
60 66 
60 69 
60 71 
60 82 
60 87 
60 93 
60 95 
60 104 
60 107 
60 114 
60 115 
61 62 
61 63 
61 64 
61 65 
61 66 
61 67 
61 72 
61 83 
61 88 
61 93 
61 94 
61 101 
61 105 
61 113 
61 116 
62 63 
62 64 
62 65 
62 66 
62 73 
62 77 
62 84 
62 85 
62 95 
62 97 
62 103 
62 106 
62 111 
62 117 
63 64 
63 65 
63 66 
63 73 
63 74 
63 78 
63 85 
63 90 
63 96 
63 104 
63 107 
63 118 
63 119 
64 65 
64 66 
64 72 
64 75 
64 81 
64 86 
64 97 
64 98 
64 100 
64 108 
64 115 
64 119 
65 66 
65 70 
65 76 
65 79 
65 87 
65 89 
65 98 
65 109 
65 110 
65 118 
65 120 
66 74 
66 77 
66 83 
66 88 
66 92 
66 99 
66 108 
66 110 
66 112 
66 121 
67 68 
67 69 
67 70 
67 71 
67 72 
67 73 
67 74 
67 75 
67 76 
67 77 
67 78 
67 88 
67 89 
67 93 
67 100 
67 101 
67 111 
67 113 
68 69 
68 70 
68 71 
68 72 
68 73 
68 74 
68 75 
68 76 
68 77 
68 79 
68 84 
68 90 
68 94 
68 101 
68 102 
68 112 
68 121 
69 70 
69 71 
69 72 
69 73 
69 74 
69 75 
69 76 
69 77 
69 80 
69 87 
69 91 
69 95 
69 102 
69 107 
69 113 
69 114 
70 71 
70 72 
70 73 
70 74 
70 75 
70 76 
70 77 
70 79 
70 81 
70 89 
70 92 
70 103 
70 110 
70 114 
70 118 
71 72 
71 73 
71 74 
71 75 
71 76 
71 77 
71 80 
71 82 
71 93 
71 99 
71 104 
71 109 
71 115 
71 117 
72 73 
72 74 
72 75 
72 76 
72 77 
72 81 
72 83 
72 94 
72 98 
72 100 
72 105 
72 115 
72 116 
73 74 
73 75 
73 76 
73 77 
73 78 
73 84 
73 90 
73 95 
73 104 
73 106 
73 117 
73 119 
74 75 
74 76 
74 77 
74 83 
74 85 
74 92 
74 96 
74 107 
74 108 
74 112 
74 118 
75 76 
75 77 
75 82 
75 86 
75 91 
75 97 
75 105 
75 108 
75 119 
75 120 
76 77 
76 86 
76 87 
76 96 
76 98 
76 106 
76 109 
76 116 
76 120 
77 85 
77 88 
77 97 
77 99 
77 103 
77 110 
77 111 
77 121 
78 79 
78 80 
78 81 
78 82 
78 83 
78 84 
78 85 
78 86 
78 87 
78 88 
78 89 
78 90 
78 100 
78 104 
78 111 
78 119 
79 80 
79 81 
79 82 
79 83 
79 84 
79 85 
79 86 
79 87 
79 88 
79 89 
79 90 
79 101 
79 110 
79 112 
79 118 
80 81 
80 82 
80 83 
80 84 
80 85 
80 86 
80 87 
80 88 
80 91 
80 99 
80 102 
80 109 
80 113 
80 117 
81 82 
81 83 
81 84 
81 85 
81 86 
81 87 
81 88 
81 92 
81 98 
81 100 
81 103 
81 114 
81 115 
82 83 
82 84 
82 85 
82 86 
82 87 
82 88 
82 91 
82 93 
82 104 
82 105 
82 115 
82 120 
83 84 
83 85 
83 86 
83 87 
83 88 
83 92 
83 94 
83 105 
83 108 
83 112 
83 116 
84 85 
84 86 
84 87 
84 88 
84 94 
84 95 
84 102 
84 106 
84 117 
84 121 
85 86 
85 87 
85 88 
85 96 
85 97 
85 103 
85 107 
85 111 
85 118 
86 87 
86 88 
86 96 
86 97 
86 106 
86 108 
86 116 
86 119 
87 88 
87 95 
87 98 
87 107 
87 109 
87 114 
87 120 
88 93 
88 99 
88 101 
88 110 
88 113 
88 121 
89 90 
89 91 
89 92 
89 93 
89 94 
89 95 
89 96 
89 97 
89 98 
89 99 
89 100 
89 110 
89 111 
89 118 
90 91 
90 92 
90 93 
90 94 
90 95 
90 96 
90 97 
90 98 
90 99 
90 101 
90 104 
90 112 
90 119 
91 92 
91 93 
91 94 
91 95 
91 96 
91 97 
91 98 
91 99 
91 102 
91 105 
91 113 
91 120 
92 93 
92 94 
92 95 
92 96 
92 97 
92 98 
92 99 
92 103 
92 108 
92 112 
92 114 
93 94 
93 95 
93 96 
93 97 
93 98 
93 99 
93 101 
93 104 
93 113 
93 115 
94 95 
94 96 
94 97 
94 98 
94 99 
94 102 
94 105 
94 116 
94 121 
95 96 
95 97 
95 98 
95 99 
95 106 
95 107 
95 114 
95 117 
96 97 
96 98 
96 99 
96 106 
96 107 
96 116 
96 118 
97 98 
97 99 
97 103 
97 108 
97 111 
97 119 
98 99 
98 100 
98 109 
98 115 
98 120 
99 109 
99 110 
99 117 
99 121 
100 101 
100 102 
100 103 
100 104 
100 105 
100 106 
100 107 
100 108 
100 109 
100 110 
100 111 
100 115 
101 102 
101 103 
101 104 
101 105 
101 106 
101 107 
101 108 
101 109 
101 110 
101 112 
101 113 
102 103 
102 104 
102 105 
102 106 
102 107 
102 108 
102 109 
102 110 
102 113 
102 121 
103 104 
103 105 
103 106 
103 107 
103 108 
103 109 
103 110 
103 111 
103 114 
104 105 
104 106 
104 107 
104 108 
104 109 
104 110 
104 115 
104 119 
105 106 
105 107 
105 108 
105 109 
105 110 
105 116 
105 120 
106 107 
106 108 
106 109 
106 110 
106 116 
106 117 
107 108 
107 109 
107 110 
107 114 
107 118 
108 109 
108 110 
108 112 
108 119 
109 110 
109 117 
109 120 
110 118 
110 121 
111 112 
111 113 
111 114 
111 115 
111 116 
111 117 
111 118 
111 119 
111 120 
111 121 
112 113 
112 114 
112 115 
112 116 
112 117 
112 118 
112 119 
112 120 
112 121 
113 114 
113 115 
113 116 
113 117 
113 118 
113 119 
113 120 
113 121 
114 115 
114 116 
114 117 
114 118 
114 119 
114 120 
114 121 
115 116 
115 117 
115 118 
115 119 
115 120 
115 121 
116 117 
116 118 
116 119 
116 120 
116 121 
117 118 
117 119 
117 120 
117 121 
118 119 
118 120 
118 121 
119 120 
119 121 
120 121 
